qe/outputs/qe/qe_queries_wdomain/T=5,eliminate=[I_0,I_1,I_2,I_3,I_4,L_4,C].smt2
; benchmark generated from python API
(set-info :status unknown)
(declare-fun S_1 () Real)
(declare-fun S_2 () Real)
(declare-fun S_3 () Real)
(declare-fun S_4 () Real)
(declare-fun L_2 () Real)
(declare-fun A_2 () Real)
(declare-fun L_3 () Real)
(declare-fun A_4 () Real)
(declare-fun S_0 () Real)
(declare-fun A_3 () Real)
(declare-fun A_1 () Real)
(declare-fun B () Real)
(declare-fun L_1 () Real)
(declare-fun L_0 () Real)
(declare-fun A_0 () Real)
(assert
 (let (($x2329 (<= (+ (* (- 1.0) S_2) (* (- 1.0) L_1) (* (- 1.0) B) A_1) 0.0)))
 (let (($x1726 (<= (+ (* (- 1.0) S_4) (* (- 1.0) B) (* (- 1.0) L_3) A_3) 0.0)))
 (let (($x1393 (<= (+ (* (- 1.0) S_3) (* (- 1.0) L_2) (* (- 1.0) B) A_2) 0.0)))
 (let (($x1407 (<= (+ A_0 (* (- 1.0) S_1) (* (- 1.0) L_1) (* (- 1.0) B)) 0.0)))
 (let (($x788 (not (<= B 0.0))))
 (let ((?x1437 (* (- 2.0) A_1)))
 (let ((?x1375 (* 2.0 B)))
 (let ((?x1436 (* 2.0 L_1)))
 (let ((?x1685 (* (- 2.0) L_0)))
 (let ((?x1684 (* 2.0 A_0)))
 (let ((?x777 (* (- 1.0) A_2)))
 (let (($x1412 (<= (+ (* (- 1.0) A_0) S_0 L_1 B) 0.0)))
 (let ((?x756 (* (- 1.0) L_0)))
 (let ((?x765 (* (- 1.0) L_1)))
 (let (($x605 (= ?x765 ?x756)))
 (let (($x32461 (or $x605 $x1412 (<= (+ S_4 ?x777 L_2 ?x1684 ?x1685 ?x1436 ?x1375 ?x1437) 0.0))))
 (let (($x10660 (<= (+ (* (- (/ 1.0 3.0)) S_4) (* (- (/ 2.0 3.0)) A_0) (* (/ 2.0 3.0) L_0) S_1) 0.0)))
 (let ((?x925 (* (- 1.0) A_0)))
 (let ((?x774 (* (- 1.0) L_2)))
 (let ((?x1727 (* (- 1.0) S_4)))
 (let (($x2063 (<= (+ (* (- 1.0) L_3) A_3 ?x1727) 0.0)))
 (let (($x7161 (<= (+ (* (/ 1.0 2.0) L_1) (* (- (/ 1.0 2.0)) A_1) (* (- (/ 1.0 2.0)) S_4) S_2) 0.0)))
 (let (($x2059 (<= (+ ?x765 A_1 (* (- 1.0) S_2)) 0.0)))
 (let (($x16510 (or $x2059 (<= (+ S_4 ?x777 L_2 ?x1684 (* (- 2.0) S_2) ?x1685) 0.0))))
 (let ((?x8265 (* (- (/ 1.0 2.0)) L_0)))
 (let ((?x5848 (* (- (/ 1.0 2.0)) S_3)))
 (let ((?x5755 (* (/ 1.0 2.0) A_0)))
 (let ((?x786 (* (- 1.0) A_3)))
 (let (($x2030 (<= (+ A_2 ?x774 (* (- 1.0) S_3)) 0.0)))
 (let (($x17564 (or $x2030 (<= (+ L_3 ?x786 S_4 ?x765 A_1 (* (- 1.0) S_3)) 0.0) (<= (+ L_3 ?x786 S_4 ?x5755 ?x5848 ?x8265) 0.0))))
 (let (($x19022 (or $x2063 (<= (+ ?x1727 A_2 ?x774) (- 5.0)) (<= (+ (* (- (/ 1.0 2.0)) L_1) (* (/ 1.0 2.0) A_1) (* (- (/ 1.0 2.0)) S_4)) (- 5.0)) (<= (+ (* (- (/ 1.0 3.0)) S_4) (* (/ 1.0 3.0) A_0) (* (- (/ 1.0 3.0)) L_0)) (- 5.0)))))
 (let ((?x1568 (* (- 1.0) S_2)))
 (let ((?x16149 (* (/ 1.0 3.0) S_3)))
 (let ((?x10603 (* (- (/ 2.0 3.0)) L_0)))
 (let ((?x10615 (* (/ 2.0 3.0) A_0)))
 (let (($x8474 (<= (+ ?x5755 ?x5848 ?x8265) (- 5.0))))
 (let (($x10655 (<= (+ (* (- (/ 2.0 3.0)) S_4) (* (- (/ 1.0 3.0)) A_0) (* (/ 1.0 3.0) L_0) S_2) 0.0)))
 (let (($x13890 (<= (+ (* (/ 1.0 4.0) S_4) (* (/ 3.0 4.0) A_0) (* (- (/ 3.0 4.0)) L_0) ?x1568) 0.0)))
 (let ((?x1778 (* (- 3.0) A_1)))
 (let ((?x1396 (* 3.0 B)))
 (let ((?x1751 (* 3.0 L_1)))
 (let ((?x2618 (* (- 4.0) A_1)))
 (let ((?x2620 (* 4.0 L_1)))
 (let ((?x1705 (* 4.0 B)))
 (let ((?x3091 (* (- 3.0) L_0)))
 (let ((?x3279 (* 3.0 A_0)))
 (let (($x2523 (<= (+ L_3 ?x774) 0.0)))
 (let ((?x1762 (* 3.0 A_1)))
 (let ((?x1771 (* (- 3.0) L_1)))
 (let ((?x1446 (* (- 2.0) B)))
 (let ((?x1739 (* 2.0 L_0)))
 (let ((?x1738 (* (- 2.0) A_0)))
 (let (($x20107 (or (<= (+ ?x1738 ?x1739 ?x1446 ?x1771 L_3 ?x1762 ?x786) 0.0) $x2523 (<= (+ A_2 ?x774 ?x925 L_0 L_3 ?x765 A_1 ?x786) 0.0))))
 (let (($x6834 (<= (+ (* (- 2.0) L_1) (* 2.0 A_1) S_4 (* (- 3.0) S_3)) 0.0)))
 (let (($x2342 (<= (+ ?x1727 A_2 ?x774 ?x925 L_0 ?x765 (* (- 1.0) B) A_1) 0.0)))
 (let (($x32562 (or $x2063 $x2342 (<= (+ ?x1727 ?x1738 ?x1739 ?x1771 (* (- 3.0) B) ?x1762) 0.0))))
 (let ((?x796 (* (- 1.0) B)))
 (let ((?x8415 (* (/ 1.0 2.0) L_0)))
 (let ((?x8408 (* (- (/ 1.0 2.0)) A_0)))
 (let (($x4237 (<= (+ L_3 ?x786 S_4 A_0 ?x756 L_1 B (* (- 1.0) A_1)) 0.0)))
 (let ((?x1442 (* (- 2.0) A_3)))
 (let ((?x1316 (* 3.0 A_2)))
 (let ((?x1348 (* (- 3.0) B)))
 (let ((?x1315 (* (- 3.0) L_2)))
 (let ((?x1441 (* 2.0 L_3)))
 (let (($x1444 (<= (+ ?x925 L_0 ?x1441 ?x1315 ?x1348 ?x1316 ?x1442) 0.0)))
 (let (($x5449 (<= (+ ?x1441 ?x1442 (* 2.0 S_4) A_0 ?x756 L_2 B ?x777) 0.0)))
 (let (($x2591 (<= (+ (* (- 2.0) L_1) (* 2.0 A_1) L_2 L_0 B ?x925 ?x777) 0.0)))
 (let (($x2086 (<= (+ L_2 ?x765) 0.0)))
 (let (($x19493 (or (<= (+ A_0 ?x756 B L_3 ?x786) (- 15.0)) $x2523 (<= (+ A_2 ?x774 L_3 B ?x786) (- 5.0)) (<= (+ ?x765 A_1 L_3 B ?x786) (- 10.0)))))
 (let (($x31368 (or (<= (+ ?x925 L_0 (* 3.0 S_2) ?x1375 ?x1441 ?x1442) 0.0) $x2523)))
 (let (($x32372 (or (<= (+ ?x1738 ?x1739 (* 3.0 S_1) B L_3 ?x786) 0.0) $x2523 (<= (+ A_2 ?x774 ?x925 L_0 S_1 L_3 B ?x786) 0.0))))
 (let (($x22657 (or $x605 $x1412 (<= (+ ?x1684 ?x1685 (* (- 1.0) L_3) ?x1751 ?x1375 ?x1778 A_3) 0.0))))
 (let (($x2322 (<= (+ ?x777 L_2 S_3 A_0 ?x756 L_1 B (* (- 1.0) A_1)) 0.0)))
 (let ((?x768 (* (- 1.0) A_1)))
 (let ((?x783 (* (- 1.0) L_3)))
 (let (($x31801 (or $x605 $x1412 (<= (+ ?x777 L_2 A_0 ?x756 ?x783 L_1 ?x768 A_3) 0.0))))
 (let (($x1390 (<= (+ S_4 A_0 ?x756 (* 2.0 L_2) ?x1375 (* (- 2.0) A_2)) 0.0)))
 (let (($x19336 (or $x2523 (<= (+ L_1 ?x768 (* 2.0 S_2) L_3 B ?x786) 0.0))))
 (let (($x2541 (not $x2591)))
 (let (($x32039 (or $x2086 $x2541 (<= (+ L_3 ?x786 S_4 ?x765 A_1 L_2 B ?x777) 0.0))))
 (let ((?x1397 (* (- 3.0) A_2)))
 (let ((?x1395 (* 3.0 L_2)))
 (let ((?x1418 (* 2.0 A_1)))
 (let ((?x1429 (* (- 2.0) L_1)))
 (let (($x31679 (or (not (<= (+ A_0 ?x756 ?x1436 ?x774 ?x796 ?x1437 A_2) 0.0)) $x2086 $x2322)))
 (let ((?x3586 (* (- 3.0) A_3)))
 (let ((?x4191 (* 3.0 L_3)))
 (let ((?x1584 (* 2.0 S_4)))
 (let ((?x1686 (* (- 4.0) A_3)))
 (let ((?x1673 (* 4.0 L_3)))
 (let ((?x1728 (* 3.0 S_4)))
 (let (($x31404 (or (<= (+ ?x1728 A_0 ?x756 ?x1705 ?x1673 ?x1686) 0.0) $x2523 (<= (+ S_4 A_2 ?x774 ?x1441 ?x1375 ?x1442) 0.0) (<= (+ ?x765 A_1 ?x1584 ?x4191 ?x1396 ?x3586) 0.0))))
 (let ((?x1421 (* 2.0 A_3)))
 (let ((?x1417 (* (- 2.0) L_3)))
 (let ((?x1682 (* (- 3.0) S_3)))
 (let (($x6814 (or (<= (+ A_0 ?x756 ?x1682 ?x1446 ?x1417 ?x1421) 0.0) $x2030 (<= (+ ?x765 A_1 (* (- 2.0) S_3) ?x783 ?x796 A_3) 0.0))))
 (let (($x2698 (<= (+ L_1 ?x768 ?x1727 (* (- 2.0) L_2) ?x1446 (* 2.0 A_2)) 0.0)))
 (let (($x2712 (<= (+ L_1 ?x768 (* (- 2.0) L_2) L_3 ?x1446 (* 2.0 A_2) ?x786) 0.0)))
 (let (($x2701 (<= (+ ?x765 A_1 S_3 (* 2.0 L_2) ?x1375 (* (- 2.0) A_2)) 0.0)))
 (let (($x1439 (<= (+ A_0 ?x756 ?x1436 ?x774 ?x796 ?x1437 A_2) 0.0)))
 (let (($x2585 (<= (+ ?x783 A_3 ?x765 A_1 (* 2.0 L_2) ?x1375 (* (- 2.0) A_2)) 0.0)))
 (let (($x31767 (or (<= (+ A_0 ?x756 (* 2.0 S_3) ?x1395 ?x1396 ?x1397) 0.0) $x2086 $x2591)))
 (let (($x31720 (or (<= (+ (* (- 2.0) S_4) ?x925 L_0 ?x1315 ?x1348 ?x1316) 0.0) (not $x1444))))
 (let (($x4563 (or $x2059 (<= (+ ?x777 L_2 A_0 ?x1568 ?x756 ?x783 ?x796 A_3) 0.0))))
 (let (($x31772 (or (<= (+ ?x765 A_1 L_2 B ?x777) (- 5.0)) (<= (+ A_0 ?x756 L_2 B ?x777) (- 10.0)) $x2086)))
 (let (($x2587 (<= (+ ?x783 A_3 ?x765 A_1 (* 2.0 L_2) B (* (- 2.0) A_2)) 0.0)))
 (let (($x2895 (= (+ ?x765 A_1 ?x783 (* 2.0 L_2) B (* (- 2.0) A_2) A_3) 0.0)))
 (let (($x22752 (or (<= (+ ?x925 L_0 (* 2.0 S_1) L_2 B ?x777) 0.0) $x2086)))
 (let (($x2053 (or (<= (+ A_0 ?x756 (* (- 2.0) S_2) ?x774 ?x796 A_2) 0.0) $x2059)))
 (let (($x2010 (or (<= (+ ?x1684 ?x1685 (* (- 3.0) S_2) ?x796 ?x783 A_3) 0.0) $x2059)))
 (let (($x41 (>= A_1 A_0)))
 (let (($x42 (>= A_2 A_1)))
 (let (($x43 (>= A_3 A_2)))
 (let (($x44 (>= A_4 A_3)))
 (and (<= ?x765 ?x756) $x44 $x43 $x42 $x41 (<= ?x774 ?x765) (or (= ?x783 ?x774) (<= (+ S_3 B L_3 ?x786) 0.0)) $x2010 $x2053 (or (<= (+ S_2 L_2 B ?x777) 0.0) $x2086) $x22752 (or $x2523 $x2712) (or (<= (+ ?x925 L_0 ?x1429 L_2 ?x796 ?x1418 ?x777) 0.0) $x2086) (or $x605 $x1412 (<= (+ S_1 L_1 B ?x768) 0.0)) (or (<= (+ A_0 ?x756 L_1 B ?x768) (- 5.0)) $x605 $x1412) (or (<= (+ A_0 ?x756 ?x1417 ?x1395 B ?x1397 ?x1421) 0.0) $x2086 $x2591) (or $x1439 $x2086 $x2587) (or $x2523 (not $x2587) $x2895) (or (<= (+ ?x1684 ?x1685 ?x796 ?x1751 ?x783 ?x1778 A_3) 0.0) $x2086 $x2587) $x31772 (or $x605 $x1412 (<= (+ A_2 ?x774 A_0 ?x756 ?x1436 B ?x1437) 0.0)) (or (<= (+ ?x925 L_0 ?x796 ?x1315 ?x1441 ?x1316 ?x1442) 0.0) $x2523) $x4563 (<= ?x783 ?x774) $x31720 $x31767 (or $x2063 $x2712) (or $x2585 $x2698) (or $x1439 $x2086 $x2701) (or (not $x2712) $x2698) $x6814 $x31404 (or $x2059 (<= (+ A_0 ?x756 ?x1568) (- 5.0))) $x31679 (or $x2086 $x2541 (<= (+ ?x1429 ?x1418 S_4 ?x1395 ?x1396 ?x1397) 0.0)) $x32039 (or $x605 $x1412 (<= (+ A_0 ?x756 S_2 ?x1436 ?x1375 ?x1437) 0.0)) $x19336 (or $x1390 $x2086 $x2591) (or $x2030 (<= (+ ?x8408 ?x5848 ?x8415 S_1) 0.0)) $x31801 (or $x605 $x1412 $x2322) (or $x2059 (<= (+ L_3 ?x786 S_4 A_0 ?x756 ?x1568) 0.0)) $x22657 $x32372 $x31368 $x19493 (or $x2086 $x2591 $x5449) (or $x1444 $x2063) (or $x605 $x1412 $x4237) (or $x2030 (<= (+ ?x8408 ?x5848 ?x8415 ?x765 ?x796 A_1) 0.0)) $x32562 (or $x2030 $x6834 (<= (+ S_4 A_0 ?x756 (* (- 2.0) S_3)) 0.0)) $x20107 (or $x605 $x1412 (<= (+ S_4 ?x3279 ?x3091 ?x1705 ?x2620 ?x2618) 0.0)) (or $x605 $x1412 (<= (+ ?x1684 ?x1685 S_3 ?x1751 ?x1396 ?x1778) 0.0)) (or $x2059 $x13890) (or $x2063 $x10655) (or $x2030 (<= (+ ?x765 A_1 (* (- 1.0) S_3)) (- 5.0)) $x8474) (or $x2059 (<= (+ ?x777 L_2 S_3 A_0 ?x1568 ?x756) 0.0)) (or $x2059 (<= (+ ?x10615 ?x10603 ?x16149 ?x1568) 0.0)) $x19022 $x17564 $x16510 (or $x2063 $x7161) (or $x2063 (<= (+ ?x1727 A_2 ?x774 ?x925 L_0 S_1) 0.0) $x10660) $x32461 $x788 $x1407 $x1393 $x1726 (<= (+ L_1 ?x768 S_1) 0.0) (<= (+ ?x925 L_0 S_0) 0.0) $x2329 (<= (+ L_3 ?x786 S_3) 0.0) (<= (+ (* (- 1.0) S_1) S_0) 0.0) (<= (+ S_4 (* (- 1.0) A_4) L_3) 0.0) (<= (+ ?x777 L_2 S_2) 0.0) (<= (+ (* (- 1.0) S_3) S_2) 0.0) (<= (+ ?x1727 S_3) 0.0) (<= (+ ?x1568 S_1) 0.0))))))))))))))))))))))))))))))))))))))))))))))))))))))))))))))))))))))))))))))))))))))))))))))))))))))))))))))))))))))
(check-sat)
